p cnf 20 22
1 2 0
-1 3 0
4 5 6 7 1 18 0
4 5 6 7 -1 8 0
4 5 6 -7 1 16 0
4 5 6 -7 -1 8 0
4 5 -6 7 1 10 0
4 5 -6 7 -1 8 0
4 5 -6 -7 1 9 0
4 5 -6 -7 -1 8 0
4 -5 6 7 1 11 0
4 -5 6 7 -1 20 0
4 -5 6 -7 1 12 0
4 -5 6 -7 -1 13 0
4 -5 -6 7 1 14 0
4 -5 -6 7 -1 8 0
4 -5 -6 -7 1 15 0
4 -5 -6 -7 -1 8 0
-4 5 6 7 1 17 0
-4 5 6 7 -1 8 0
-4 5 6 -7 1 19 0
-4 5 6 -7 -1 8 0
